Test: fpga12_12_sat.cnf
Options: -no-inverting-opt
WARNING: for repeatability, setting FPU to use double precision
============================[ Problem Statistics ]=============================
|                                                                             |
|  Number of symmetries:           32                                         |
|  Number of invertingSyms:         0                                         |
|  Number of variables:           216                                         |
|  Number of clauses:            1128                                         |
|  Parse time:                   0.00 s                                       |
|                                                                             |
============================[ Search Statistics ]==============================
| Conflicts |          ORIGINAL         |          LEARNT          | Progress |
|           |    Vars  Clauses Literals |    Limit  Clauses Lit/Cl |          |
===============================================================================
|       100 |     216     1128     3096 |      413      373     40 |  0.002 % |
===============================================================================
restarts              : 2
conflicts             : 156            (inf /sec)
symconflicts          : 54             (inf /sec)
decisions             : 427            (0.00 % random) (inf /sec)
propagations          : 4015           (inf /sec)
sympropagations       : 398            (inf /sec)
conflict literals     : 6688           (1.04 % deleted)
literals     : 6688           (1.04 % deleted)

HEURISTIC USAGES
random                : 0           
activity w/ lookahead : 0           
activity no lookahead : 0           
original sp           : 426         
sym count             : 0           

Memory used           : 6.00 MB
CPU time              : 0 s

SATISFIABLE
